Welcome to the CBC MILP Solver 
Version: 2.10.7 
Build Date: Feb 14 2022 

command line - cbc inputs/new_tr/order/default15_tiers_input.lp sec 1800 solve solu solutions/new_tr/default15_tiers_input.lp (default strategy 1)
seconds was changed from 1e+100 to 1800
Continuous objective value is 19456 - 0.00 seconds
Cgl0002I 130 variables fixed
Cgl0003I 0 fixed, 1 tightened bounds, 66 strengthened rows, 0 substitutions
Cgl0003I 0 fixed, 0 tightened bounds, 5 strengthened rows, 0 substitutions
Cgl0003I 0 fixed, 0 tightened bounds, 7 strengthened rows, 0 substitutions
Cgl0004I processed model has 292 rows, 108 columns (108 integer (92 of which binary)) and 961 elements
Cutoff increment increased from 1e-05 to 0.9999
Cbc0045I 1 integer variables out of 108 objects (108 integer) have cost of 1 - high priority
Cbc0045I branch on satisfied Y create fake objective Y random cost Y
Cbc0038I Initial state - 16 integers unsatisfied sum - 4.42857
Cbc0038I Pass   1: suminf.    0.00000 (0) obj. 20480 iterations 62
Cbc0038I Solution found of 20480
Cbc0038I Cleaned solution of 20480
Cbc0038I Before mini branch and bound, 91 integers at bound fixed and 0 continuous of which 5 were internal integer and 0 internal continuous
Cbc0038I Full problem 292 rows 108 columns, reduced to 5 rows 2 columns
Cbc0038I Mini branch and bound did not improve solution (0.02 seconds)
Cbc0038I Round again with cutoff of 20376.7
Cbc0038I Pass   2: suminf.    0.37723 (16) obj. 20376 iterations 20
Cbc0038I Pass   3: suminf.    5.01671 (19) obj. 20376.7 iterations 28
Cbc0038I Pass   4: suminf.    0.73225 (16) obj. 20376.7 iterations 9
Cbc0038I Pass   5: suminf.    5.24692 (38) obj. 20376.7 iterations 54
Cbc0038I Pass   6: suminf.    5.26575 (38) obj. 20376.7 iterations 5
Cbc0038I Pass   7: suminf.    5.51875 (38) obj. 20376.7 iterations 47
Cbc0038I Pass   8: suminf.    0.67460 (17) obj. 20376.7 iterations 35
Cbc0038I Pass   9: suminf.    5.01671 (19) obj. 20376.7 iterations 32
Cbc0038I Pass  10: suminf.    0.73225 (16) obj. 20376.7 iterations 15
Cbc0038I Pass  11: suminf.    5.24692 (38) obj. 20376.7 iterations 36
Cbc0038I Pass  12: suminf.    5.26575 (38) obj. 20376.7 iterations 3
Cbc0038I Pass  13: suminf.    6.72534 (41) obj. 20376.7 iterations 56
Cbc0038I Pass  14: suminf.    2.46406 (22) obj. 20376.7 iterations 19
Cbc0038I Pass  15: suminf.    1.40852 (21) obj. 20376.7 iterations 6
Cbc0038I Pass  16: suminf.    5.01671 (19) obj. 20376.7 iterations 32
Cbc0038I Pass  17: suminf.    0.73225 (16) obj. 20376.7 iterations 15
Cbc0038I Pass  18: suminf.    5.24731 (40) obj. 20376.7 iterations 44
Cbc0038I Pass  19: suminf.    5.25839 (39) obj. 20376.7 iterations 1
Cbc0038I Pass  20: suminf.    6.53332 (44) obj. 20376.7 iterations 52
Cbc0038I Pass  21: suminf.    2.61284 (29) obj. 20376.7 iterations 29
Cbc0038I Pass  22: suminf.    0.67460 (17) obj. 20376.7 iterations 6
Cbc0038I Pass  23: suminf.    5.01671 (19) obj. 20376.7 iterations 26
Cbc0038I Pass  24: suminf.    0.73225 (16) obj. 20376.7 iterations 15
Cbc0038I Pass  25: suminf.    5.24731 (40) obj. 20376.7 iterations 42
Cbc0038I Pass  26: suminf.    5.25839 (39) obj. 20376.7 iterations 2
Cbc0038I Pass  27: suminf.    4.19581 (39) obj. 20376.7 iterations 47
Cbc0038I Pass  28: suminf.    2.10016 (21) obj. 20376.7 iterations 24
Cbc0038I Pass  29: suminf.    0.67460 (17) obj. 20376.7 iterations 4
Cbc0038I Pass  30: suminf.    5.01671 (19) obj. 20376.7 iterations 22
Cbc0038I Pass  31: suminf.    0.73225 (16) obj. 20376.7 iterations 10
Cbc0038I Pass  32: suminf.    5.24731 (40) obj. 20376.7 iterations 42
Cbc0038I Pass  33: suminf.    5.25839 (39) obj. 20376.7 iterations 4
Cbc0038I Pass  34: suminf.    6.79036 (42) obj. 20376.7 iterations 53
Cbc0038I Pass  35: suminf.    2.61284 (29) obj. 20376.7 iterations 22
Cbc0038I Pass  36: suminf.    0.67460 (17) obj. 20376.7 iterations 9
Cbc0038I Pass  37: suminf.    5.01671 (19) obj. 20376.7 iterations 22
Cbc0038I Pass  38: suminf.    0.73225 (16) obj. 20376.7 iterations 12
Cbc0038I Pass  39: suminf.    5.24731 (40) obj. 20376.7 iterations 39
Cbc0038I Pass  40: suminf.    5.25839 (39) obj. 20376.7 iterations 2
Cbc0038I Pass  41: suminf.    7.64909 (42) obj. 20376.7 iterations 47
Cbc0038I Pass  42: suminf.    0.67460 (17) obj. 20376.7 iterations 38
Cbc0038I Pass  43: suminf.    0.67460 (17) obj. 20376.7 iterations 2
Cbc0038I Pass  44: suminf.    5.01671 (19) obj. 20376.7 iterations 18
Cbc0038I Pass  45: suminf.    0.73225 (16) obj. 20376.7 iterations 15
Cbc0038I Pass  46: suminf.    5.24692 (38) obj. 20376.7 iterations 57
Cbc0038I Pass  47: suminf.    5.26575 (38) obj. 20376.7 iterations 6
Cbc0038I Pass  48: suminf.    6.84331 (43) obj. 20376.7 iterations 67
Cbc0038I Pass  49: suminf.    2.86140 (23) obj. 20376.7 iterations 30
Cbc0038I Pass  50: suminf.    0.67460 (17) obj. 20376.7 iterations 5
Cbc0038I Pass  51: suminf.    5.01671 (19) obj. 20376.7 iterations 25
Cbc0038I Pass  52: suminf.    0.73225 (16) obj. 20376.7 iterations 14
Cbc0038I Pass  53: suminf.    5.24692 (38) obj. 20376.7 iterations 46
Cbc0038I Pass  54: suminf.    5.26575 (38) obj. 20376.7 iterations 3
Cbc0038I Pass  55: suminf.    6.84331 (43) obj. 20376.7 iterations 30
Cbc0038I Pass  56: suminf.    2.86140 (23) obj. 20376.7 iterations 25
Cbc0038I Pass  57: suminf.    0.67460 (17) obj. 20376.7 iterations 5
Cbc0038I Pass  58: suminf.    5.01671 (19) obj. 20376.7 iterations 18
Cbc0038I Pass  59: suminf.    0.73225 (16) obj. 20376.7 iterations 9
Cbc0038I Pass  60: suminf.    5.24692 (38) obj. 20376.7 iterations 37
Cbc0038I Pass  61: suminf.    5.26575 (38) obj. 20376.7 iterations 3
Cbc0038I Pass  62: suminf.    6.72534 (41) obj. 20376.7 iterations 46
Cbc0038I Pass  63: suminf.    2.46406 (22) obj. 20376.7 iterations 26
Cbc0038I Pass  64: suminf.    1.40852 (21) obj. 20376.7 iterations 5
Cbc0038I Pass  65: suminf.    5.01671 (19) obj. 20376.7 iterations 35
Cbc0038I Pass  66: suminf.    0.73225 (16) obj. 20376.7 iterations 20
Cbc0038I Pass  67: suminf.    5.24731 (40) obj. 20376.7 iterations 45
Cbc0038I Pass  68: suminf.    5.25839 (39) obj. 20376.7 iterations 2
Cbc0038I Pass  69: suminf.    4.13721 (35) obj. 20376.7 iterations 57
Cbc0038I Pass  70: suminf.    2.10016 (21) obj. 20376.7 iterations 24
Cbc0038I Pass  71: suminf.    0.67460 (17) obj. 20376.7 iterations 4
Cbc0038I Pass  72: suminf.    5.01671 (19) obj. 20376.7 iterations 19
Cbc0038I Pass  73: suminf.    0.73225 (16) obj. 20376.7 iterations 10
Cbc0038I Pass  74: suminf.    5.24731 (40) obj. 20376.7 iterations 43
Cbc0038I Pass  75: suminf.    5.25839 (39) obj. 20376.7 iterations 2
Cbc0038I Pass  76: suminf.    6.79036 (42) obj. 20376.7 iterations 41
Cbc0038I Pass  77: suminf.    2.61284 (29) obj. 20376.7 iterations 31
Cbc0038I Pass  78: suminf.    0.67460 (17) obj. 20376.7 iterations 6
Cbc0038I Pass  79: suminf.    5.01671 (19) obj. 20376.7 iterations 21
Cbc0038I Pass  80: suminf.    0.73225 (16) obj. 20376.7 iterations 10
Cbc0038I Pass  81: suminf.    5.24731 (40) obj. 20376.7 iterations 43
Cbc0038I Pass  82: suminf.    5.25839 (39) obj. 20376.7 iterations 2
Cbc0038I Pass  83: suminf.    5.55411 (40) obj. 20376.7 iterations 44
Cbc0038I Pass  84: suminf.    2.10016 (21) obj. 20376.7 iterations 32
Cbc0038I Pass  85: suminf.    0.67460 (17) obj. 20376.7 iterations 6
Cbc0038I Pass  86: suminf.    5.01671 (19) obj. 20376.7 iterations 27
Cbc0038I Pass  87: suminf.    0.73225 (16) obj. 20376.7 iterations 12
Cbc0038I Pass  88: suminf.    5.24731 (40) obj. 20376.7 iterations 41
Cbc0038I Pass  89: suminf.    5.25839 (39) obj. 20376.7 iterations 3
Cbc0038I Pass  90: suminf.    5.93323 (42) obj. 20376.7 iterations 41
Cbc0038I Pass  91: suminf.    2.10016 (21) obj. 20376.7 iterations 39
Cbc0038I Pass  92: suminf.    0.67460 (17) obj. 20376.7 iterations 4
Cbc0038I Pass  93: suminf.    5.01671 (19) obj. 20376.7 iterations 27
Cbc0038I Pass  94: suminf.    0.73225 (16) obj. 20376.7 iterations 9
Cbc0038I Pass  95: suminf.    5.24731 (40) obj. 20376.7 iterations 45
Cbc0038I Pass  96: suminf.    5.25839 (39) obj. 20376.7 iterations 3
Cbc0038I Pass  97: suminf.    7.64909 (42) obj. 20376.7 iterations 56
Cbc0038I Pass  98: suminf.    0.67460 (17) obj. 20376.7 iterations 46
Cbc0038I Pass  99: suminf.    0.67460 (17) obj. 20376.7 iterations 3
Cbc0038I Pass 100: suminf.    5.01671 (19) obj. 20376.7 iterations 24
Cbc0038I Pass 101: suminf.   13.82421 (54) obj. 20376.7 iterations 68
Cbc0038I No solution found this major pass
Cbc0038I Before mini branch and bound, 39 integers at bound fixed and 0 continuous
Cbc0038I Full problem 292 rows 108 columns, reduced to 207 rows 69 columns - 4 fixed gives 192, 62 - still too large
Cbc0038I Full problem 292 rows 108 columns, reduced to 106 rows 40 columns
Cbc0038I Mini branch and bound did not improve solution (0.07 seconds)
Cbc0038I After 0.07 seconds - Feasibility pump exiting with objective of 20480 - took 0.06 seconds
Cbc0012I Integer solution of 20480 found by feasibility pump after 0 iterations and 0 nodes (0.07 seconds)
Cbc0006I The LP relaxation is infeasible or too expensive
Cbc0013I At root node, 0 cuts changed objective from 19456 to 19456 in 1 passes
Cbc0014I Cut generator 0 (Probing) - 1 row cuts average 0.0 elements, 0 column cuts (0 active)  in 0.000 seconds - new frequency is 1
Cbc0014I Cut generator 1 (Gomory) - 0 row cuts average 0.0 elements, 0 column cuts (0 active)  in 0.000 seconds - new frequency is -100
Cbc0014I Cut generator 2 (Knapsack) - 0 row cuts average 0.0 elements, 0 column cuts (0 active)  in 0.000 seconds - new frequency is -100
Cbc0014I Cut generator 3 (Clique) - 0 row cuts average 0.0 elements, 0 column cuts (0 active)  in 0.000 seconds - new frequency is -100
Cbc0014I Cut generator 4 (MixedIntegerRounding2) - 0 row cuts average 0.0 elements, 0 column cuts (0 active)  in 0.000 seconds - new frequency is -100
Cbc0014I Cut generator 5 (FlowCover) - 0 row cuts average 0.0 elements, 0 column cuts (0 active)  in 0.000 seconds - new frequency is -100
Cbc0014I Cut generator 6 (TwoMirCuts) - 0 row cuts average 0.0 elements, 0 column cuts (0 active)  in 0.000 seconds - new frequency is -100
Cbc0014I Cut generator 7 (ZeroHalf) - 0 row cuts average 0.0 elements, 0 column cuts (0 active)  in 0.000 seconds - new frequency is -100
Cbc0001I Search completed - best objective 20480, took 0 iterations and 0 nodes (0.07 seconds)
Cbc0035I Maximum depth 0, 0 variables fixed on reduced cost
Cuts at root node changed objective from 19456 to 19456
Probing was tried 1 times and created 1 cuts of which 0 were active after adding rounds of cuts (0.000 seconds)
Gomory was tried 0 times and created 0 cuts of which 0 were active after adding rounds of cuts (0.000 seconds)
Knapsack was tried 0 times and created 0 cuts of which 0 were active after adding rounds of cuts (0.000 seconds)
Clique was tried 0 times and created 0 cuts of which 0 were active after adding rounds of cuts (0.000 seconds)
MixedIntegerRounding2 was tried 0 times and created 0 cuts of which 0 were active after adding rounds of cuts (0.000 seconds)
FlowCover was tried 0 times and created 0 cuts of which 0 were active after adding rounds of cuts (0.000 seconds)
TwoMirCuts was tried 0 times and created 0 cuts of which 0 were active after adding rounds of cuts (0.000 seconds)
ZeroHalf was tried 0 times and created 0 cuts of which 0 were active after adding rounds of cuts (0.000 seconds)

Result - Optimal solution found

Objective value:                20480.00000000
Enumerated nodes:               0
Total iterations:               0
Time (CPU seconds):             0.08
Time (Wallclock seconds):       0.08

Total time (CPU seconds):       0.08   (Wallclock seconds):       0.08

